p cnf 7230 16
-6389 -6515 -6615 0
-6381 -6509 -6609 0
6389 -6616 0
6381 -6610 0
6615 6616 0
6613 6614 0
6513 -6614 0
-6513 -6613 0
6611 6612 0
6511 -6612 0
-6511 -6611 0
6609 6610 0
6515 -6616 0
6509 -6610 0
6517 -6618 0
-6607 6608 0
